c *********************************
c * Circuit generated by BenCGen
c *
c * CarrySkipAdder_79_79_79_InOut_G4T
c *
c * Ports with 1 gate(s): 22
c * Ports with 2 gate(s): 436
c * Ports with 3 gate(s): 1
c * Ports with 4 gate(s): 19
c * Total gates: 478
c *********************************
p cnf 636 1609
1 240 0
-1 -240 0
1 -239 0
240 -239 0
-1 -240 239 0
1 80 -243 0
-1 80 243 0
1 -80 243 0
-1 -80 -243 0
243 239 -159 0
-243 239 159 0
243 -239 159 0
-243 -239 -159 0
239 -244 0
243 -244 0
-239 -243 244 0
80 -245 0
1 -245 0
-80 -1 245 0
-244 242 0
-245 242 0
244 245 -242 0
2 81 -247 0
-2 81 247 0
2 -81 247 0
-2 -81 -247 0
247 242 -160 0
-247 242 160 0
247 -242 160 0
-247 -242 -160 0
242 -248 0
247 -248 0
-242 -247 248 0
81 -249 0
2 -249 0
-81 -2 249 0
-248 246 0
-249 246 0
248 249 -246 0
3 82 -251 0
-3 82 251 0
3 -82 251 0
-3 -82 -251 0
251 246 -161 0
-251 246 161 0
251 -246 161 0
-251 -246 -161 0
246 -252 0
251 -252 0
-246 -251 252 0
82 -253 0
3 -253 0
-82 -3 253 0
-252 250 0
-253 250 0
252 253 -250 0
4 83 -254 0
-4 83 254 0
4 -83 254 0
-4 -83 -254 0
254 250 -162 0
-254 250 162 0
254 -250 162 0
-254 -250 -162 0
250 -255 0
254 -255 0
-250 -254 255 0
83 -256 0
4 -256 0
-83 -4 256 0
-255 241 0
-256 241 0
255 256 -241 0
243 -257 0
247 -257 0
251 -257 0
254 -257 0
-243 -247 -251 -254 257 0
256 -258 0
-256 258 0
239 -259 0
257 -259 0
-239 -257 259 0
-259 260 0
-241 260 0
259 241 -260 0
5 84 -263 0
-5 84 263 0
5 -84 263 0
-5 -84 -263 0
263 260 -163 0
-263 260 163 0
263 -260 163 0
-263 -260 -163 0
260 -264 0
263 -264 0
-260 -263 264 0
84 -265 0
5 -265 0
-84 -5 265 0
-264 262 0
-265 262 0
264 265 -262 0
6 85 -267 0
-6 85 267 0
6 -85 267 0
-6 -85 -267 0
267 262 -164 0
-267 262 164 0
267 -262 164 0
-267 -262 -164 0
262 -268 0
267 -268 0
-262 -267 268 0
85 -269 0
6 -269 0
-85 -6 269 0
-268 266 0
-269 266 0
268 269 -266 0
7 86 -271 0
-7 86 271 0
7 -86 271 0
-7 -86 -271 0
271 266 -165 0
-271 266 165 0
271 -266 165 0
-271 -266 -165 0
266 -272 0
271 -272 0
-266 -271 272 0
86 -273 0
7 -273 0
-86 -7 273 0
-272 270 0
-273 270 0
272 273 -270 0
8 87 -274 0
-8 87 274 0
8 -87 274 0
-8 -87 -274 0
274 270 -166 0
-274 270 166 0
274 -270 166 0
-274 -270 -166 0
270 -275 0
274 -275 0
-270 -274 275 0
87 -276 0
8 -276 0
-87 -8 276 0
-275 261 0
-276 261 0
275 276 -261 0
263 -277 0
267 -277 0
271 -277 0
274 -277 0
-263 -267 -271 -274 277 0
276 -278 0
-276 278 0
260 -279 0
277 -279 0
-260 -277 279 0
-279 280 0
-261 280 0
279 261 -280 0
9 88 -283 0
-9 88 283 0
9 -88 283 0
-9 -88 -283 0
283 280 -167 0
-283 280 167 0
283 -280 167 0
-283 -280 -167 0
280 -284 0
283 -284 0
-280 -283 284 0
88 -285 0
9 -285 0
-88 -9 285 0
-284 282 0
-285 282 0
284 285 -282 0
10 89 -287 0
-10 89 287 0
10 -89 287 0
-10 -89 -287 0
287 282 -168 0
-287 282 168 0
287 -282 168 0
-287 -282 -168 0
282 -288 0
287 -288 0
-282 -287 288 0
89 -289 0
10 -289 0
-89 -10 289 0
-288 286 0
-289 286 0
288 289 -286 0
11 90 -291 0
-11 90 291 0
11 -90 291 0
-11 -90 -291 0
291 286 -169 0
-291 286 169 0
291 -286 169 0
-291 -286 -169 0
286 -292 0
291 -292 0
-286 -291 292 0
90 -293 0
11 -293 0
-90 -11 293 0
-292 290 0
-293 290 0
292 293 -290 0
12 91 -294 0
-12 91 294 0
12 -91 294 0
-12 -91 -294 0
294 290 -170 0
-294 290 170 0
294 -290 170 0
-294 -290 -170 0
290 -295 0
294 -295 0
-290 -294 295 0
91 -296 0
12 -296 0
-91 -12 296 0
-295 281 0
-296 281 0
295 296 -281 0
283 -297 0
287 -297 0
291 -297 0
294 -297 0
-283 -287 -291 -294 297 0
296 -298 0
-296 298 0
280 -299 0
297 -299 0
-280 -297 299 0
-299 300 0
-281 300 0
299 281 -300 0
13 92 -303 0
-13 92 303 0
13 -92 303 0
-13 -92 -303 0
303 300 -171 0
-303 300 171 0
303 -300 171 0
-303 -300 -171 0
300 -304 0
303 -304 0
-300 -303 304 0
92 -305 0
13 -305 0
-92 -13 305 0
-304 302 0
-305 302 0
304 305 -302 0
14 93 -307 0
-14 93 307 0
14 -93 307 0
-14 -93 -307 0
307 302 -172 0
-307 302 172 0
307 -302 172 0
-307 -302 -172 0
302 -308 0
307 -308 0
-302 -307 308 0
93 -309 0
14 -309 0
-93 -14 309 0
-308 306 0
-309 306 0
308 309 -306 0
15 94 -311 0
-15 94 311 0
15 -94 311 0
-15 -94 -311 0
311 306 -173 0
-311 306 173 0
311 -306 173 0
-311 -306 -173 0
306 -312 0
311 -312 0
-306 -311 312 0
94 -313 0
15 -313 0
-94 -15 313 0
-312 310 0
-313 310 0
312 313 -310 0
16 95 -314 0
-16 95 314 0
16 -95 314 0
-16 -95 -314 0
314 310 -174 0
-314 310 174 0
314 -310 174 0
-314 -310 -174 0
310 -315 0
314 -315 0
-310 -314 315 0
95 -316 0
16 -316 0
-95 -16 316 0
-315 301 0
-316 301 0
315 316 -301 0
303 -317 0
307 -317 0
311 -317 0
314 -317 0
-303 -307 -311 -314 317 0
316 -318 0
-316 318 0
300 -319 0
317 -319 0
-300 -317 319 0
-319 320 0
-301 320 0
319 301 -320 0
17 96 -323 0
-17 96 323 0
17 -96 323 0
-17 -96 -323 0
323 320 -175 0
-323 320 175 0
323 -320 175 0
-323 -320 -175 0
320 -324 0
323 -324 0
-320 -323 324 0
96 -325 0
17 -325 0
-96 -17 325 0
-324 322 0
-325 322 0
324 325 -322 0
18 97 -327 0
-18 97 327 0
18 -97 327 0
-18 -97 -327 0
327 322 -176 0
-327 322 176 0
327 -322 176 0
-327 -322 -176 0
322 -328 0
327 -328 0
-322 -327 328 0
97 -329 0
18 -329 0
-97 -18 329 0
-328 326 0
-329 326 0
328 329 -326 0
19 98 -331 0
-19 98 331 0
19 -98 331 0
-19 -98 -331 0
331 326 -177 0
-331 326 177 0
331 -326 177 0
-331 -326 -177 0
326 -332 0
331 -332 0
-326 -331 332 0
98 -333 0
19 -333 0
-98 -19 333 0
-332 330 0
-333 330 0
332 333 -330 0
20 99 -334 0
-20 99 334 0
20 -99 334 0
-20 -99 -334 0
334 330 -178 0
-334 330 178 0
334 -330 178 0
-334 -330 -178 0
330 -335 0
334 -335 0
-330 -334 335 0
99 -336 0
20 -336 0
-99 -20 336 0
-335 321 0
-336 321 0
335 336 -321 0
323 -337 0
327 -337 0
331 -337 0
334 -337 0
-323 -327 -331 -334 337 0
336 -338 0
-336 338 0
320 -339 0
337 -339 0
-320 -337 339 0
-339 340 0
-321 340 0
339 321 -340 0
21 100 -343 0
-21 100 343 0
21 -100 343 0
-21 -100 -343 0
343 340 -179 0
-343 340 179 0
343 -340 179 0
-343 -340 -179 0
340 -344 0
343 -344 0
-340 -343 344 0
100 -345 0
21 -345 0
-100 -21 345 0
-344 342 0
-345 342 0
344 345 -342 0
22 101 -347 0
-22 101 347 0
22 -101 347 0
-22 -101 -347 0
347 342 -180 0
-347 342 180 0
347 -342 180 0
-347 -342 -180 0
342 -348 0
347 -348 0
-342 -347 348 0
101 -349 0
22 -349 0
-101 -22 349 0
-348 346 0
-349 346 0
348 349 -346 0
23 102 -351 0
-23 102 351 0
23 -102 351 0
-23 -102 -351 0
351 346 -181 0
-351 346 181 0
351 -346 181 0
-351 -346 -181 0
346 -352 0
351 -352 0
-346 -351 352 0
102 -353 0
23 -353 0
-102 -23 353 0
-352 350 0
-353 350 0
352 353 -350 0
24 103 -354 0
-24 103 354 0
24 -103 354 0
-24 -103 -354 0
354 350 -182 0
-354 350 182 0
354 -350 182 0
-354 -350 -182 0
350 -355 0
354 -355 0
-350 -354 355 0
103 -356 0
24 -356 0
-103 -24 356 0
-355 341 0
-356 341 0
355 356 -341 0
343 -357 0
347 -357 0
351 -357 0
354 -357 0
-343 -347 -351 -354 357 0
356 -358 0
-356 358 0
340 -359 0
357 -359 0
-340 -357 359 0
-359 360 0
-341 360 0
359 341 -360 0
25 104 -363 0
-25 104 363 0
25 -104 363 0
-25 -104 -363 0
363 360 -183 0
-363 360 183 0
363 -360 183 0
-363 -360 -183 0
360 -364 0
363 -364 0
-360 -363 364 0
104 -365 0
25 -365 0
-104 -25 365 0
-364 362 0
-365 362 0
364 365 -362 0
26 105 -367 0
-26 105 367 0
26 -105 367 0
-26 -105 -367 0
367 362 -184 0
-367 362 184 0
367 -362 184 0
-367 -362 -184 0
362 -368 0
367 -368 0
-362 -367 368 0
105 -369 0
26 -369 0
-105 -26 369 0
-368 366 0
-369 366 0
368 369 -366 0
27 106 -371 0
-27 106 371 0
27 -106 371 0
-27 -106 -371 0
371 366 -185 0
-371 366 185 0
371 -366 185 0
-371 -366 -185 0
366 -372 0
371 -372 0
-366 -371 372 0
106 -373 0
27 -373 0
-106 -27 373 0
-372 370 0
-373 370 0
372 373 -370 0
28 107 -374 0
-28 107 374 0
28 -107 374 0
-28 -107 -374 0
374 370 -186 0
-374 370 186 0
374 -370 186 0
-374 -370 -186 0
370 -375 0
374 -375 0
-370 -374 375 0
107 -376 0
28 -376 0
-107 -28 376 0
-375 361 0
-376 361 0
375 376 -361 0
363 -377 0
367 -377 0
371 -377 0
374 -377 0
-363 -367 -371 -374 377 0
376 -378 0
-376 378 0
360 -379 0
377 -379 0
-360 -377 379 0
-379 380 0
-361 380 0
379 361 -380 0
29 108 -383 0
-29 108 383 0
29 -108 383 0
-29 -108 -383 0
383 380 -187 0
-383 380 187 0
383 -380 187 0
-383 -380 -187 0
380 -384 0
383 -384 0
-380 -383 384 0
108 -385 0
29 -385 0
-108 -29 385 0
-384 382 0
-385 382 0
384 385 -382 0
30 109 -387 0
-30 109 387 0
30 -109 387 0
-30 -109 -387 0
387 382 -188 0
-387 382 188 0
387 -382 188 0
-387 -382 -188 0
382 -388 0
387 -388 0
-382 -387 388 0
109 -389 0
30 -389 0
-109 -30 389 0
-388 386 0
-389 386 0
388 389 -386 0
31 110 -391 0
-31 110 391 0
31 -110 391 0
-31 -110 -391 0
391 386 -189 0
-391 386 189 0
391 -386 189 0
-391 -386 -189 0
386 -392 0
391 -392 0
-386 -391 392 0
110 -393 0
31 -393 0
-110 -31 393 0
-392 390 0
-393 390 0
392 393 -390 0
32 111 -394 0
-32 111 394 0
32 -111 394 0
-32 -111 -394 0
394 390 -190 0
-394 390 190 0
394 -390 190 0
-394 -390 -190 0
390 -395 0
394 -395 0
-390 -394 395 0
111 -396 0
32 -396 0
-111 -32 396 0
-395 381 0
-396 381 0
395 396 -381 0
383 -397 0
387 -397 0
391 -397 0
394 -397 0
-383 -387 -391 -394 397 0
396 -398 0
-396 398 0
380 -399 0
397 -399 0
-380 -397 399 0
-399 400 0
-381 400 0
399 381 -400 0
33 112 -403 0
-33 112 403 0
33 -112 403 0
-33 -112 -403 0
403 400 -191 0
-403 400 191 0
403 -400 191 0
-403 -400 -191 0
400 -404 0
403 -404 0
-400 -403 404 0
112 -405 0
33 -405 0
-112 -33 405 0
-404 402 0
-405 402 0
404 405 -402 0
34 113 -407 0
-34 113 407 0
34 -113 407 0
-34 -113 -407 0
407 402 -192 0
-407 402 192 0
407 -402 192 0
-407 -402 -192 0
402 -408 0
407 -408 0
-402 -407 408 0
113 -409 0
34 -409 0
-113 -34 409 0
-408 406 0
-409 406 0
408 409 -406 0
35 114 -411 0
-35 114 411 0
35 -114 411 0
-35 -114 -411 0
411 406 -193 0
-411 406 193 0
411 -406 193 0
-411 -406 -193 0
406 -412 0
411 -412 0
-406 -411 412 0
114 -413 0
35 -413 0
-114 -35 413 0
-412 410 0
-413 410 0
412 413 -410 0
36 115 -414 0
-36 115 414 0
36 -115 414 0
-36 -115 -414 0
414 410 -194 0
-414 410 194 0
414 -410 194 0
-414 -410 -194 0
410 -415 0
414 -415 0
-410 -414 415 0
115 -416 0
36 -416 0
-115 -36 416 0
-415 401 0
-416 401 0
415 416 -401 0
403 -417 0
407 -417 0
411 -417 0
414 -417 0
-403 -407 -411 -414 417 0
416 -418 0
-416 418 0
400 -419 0
417 -419 0
-400 -417 419 0
-419 420 0
-401 420 0
419 401 -420 0
37 116 -423 0
-37 116 423 0
37 -116 423 0
-37 -116 -423 0
423 420 -195 0
-423 420 195 0
423 -420 195 0
-423 -420 -195 0
420 -424 0
423 -424 0
-420 -423 424 0
116 -425 0
37 -425 0
-116 -37 425 0
-424 422 0
-425 422 0
424 425 -422 0
38 117 -427 0
-38 117 427 0
38 -117 427 0
-38 -117 -427 0
427 422 -196 0
-427 422 196 0
427 -422 196 0
-427 -422 -196 0
422 -428 0
427 -428 0
-422 -427 428 0
117 -429 0
38 -429 0
-117 -38 429 0
-428 426 0
-429 426 0
428 429 -426 0
39 118 -431 0
-39 118 431 0
39 -118 431 0
-39 -118 -431 0
431 426 -197 0
-431 426 197 0
431 -426 197 0
-431 -426 -197 0
426 -432 0
431 -432 0
-426 -431 432 0
118 -433 0
39 -433 0
-118 -39 433 0
-432 430 0
-433 430 0
432 433 -430 0
40 119 -434 0
-40 119 434 0
40 -119 434 0
-40 -119 -434 0
434 430 -198 0
-434 430 198 0
434 -430 198 0
-434 -430 -198 0
430 -435 0
434 -435 0
-430 -434 435 0
119 -436 0
40 -436 0
-119 -40 436 0
-435 421 0
-436 421 0
435 436 -421 0
423 -437 0
427 -437 0
431 -437 0
434 -437 0
-423 -427 -431 -434 437 0
436 -438 0
-436 438 0
420 -439 0
437 -439 0
-420 -437 439 0
-439 440 0
-421 440 0
439 421 -440 0
41 120 -443 0
-41 120 443 0
41 -120 443 0
-41 -120 -443 0
443 440 -199 0
-443 440 199 0
443 -440 199 0
-443 -440 -199 0
440 -444 0
443 -444 0
-440 -443 444 0
120 -445 0
41 -445 0
-120 -41 445 0
-444 442 0
-445 442 0
444 445 -442 0
42 121 -447 0
-42 121 447 0
42 -121 447 0
-42 -121 -447 0
447 442 -200 0
-447 442 200 0
447 -442 200 0
-447 -442 -200 0
442 -448 0
447 -448 0
-442 -447 448 0
121 -449 0
42 -449 0
-121 -42 449 0
-448 446 0
-449 446 0
448 449 -446 0
43 122 -451 0
-43 122 451 0
43 -122 451 0
-43 -122 -451 0
451 446 -201 0
-451 446 201 0
451 -446 201 0
-451 -446 -201 0
446 -452 0
451 -452 0
-446 -451 452 0
122 -453 0
43 -453 0
-122 -43 453 0
-452 450 0
-453 450 0
452 453 -450 0
44 123 -454 0
-44 123 454 0
44 -123 454 0
-44 -123 -454 0
454 450 -202 0
-454 450 202 0
454 -450 202 0
-454 -450 -202 0
450 -455 0
454 -455 0
-450 -454 455 0
123 -456 0
44 -456 0
-123 -44 456 0
-455 441 0
-456 441 0
455 456 -441 0
443 -457 0
447 -457 0
451 -457 0
454 -457 0
-443 -447 -451 -454 457 0
456 -458 0
-456 458 0
440 -459 0
457 -459 0
-440 -457 459 0
-459 460 0
-441 460 0
459 441 -460 0
45 124 -463 0
-45 124 463 0
45 -124 463 0
-45 -124 -463 0
463 460 -203 0
-463 460 203 0
463 -460 203 0
-463 -460 -203 0
460 -464 0
463 -464 0
-460 -463 464 0
124 -465 0
45 -465 0
-124 -45 465 0
-464 462 0
-465 462 0
464 465 -462 0
46 125 -467 0
-46 125 467 0
46 -125 467 0
-46 -125 -467 0
467 462 -204 0
-467 462 204 0
467 -462 204 0
-467 -462 -204 0
462 -468 0
467 -468 0
-462 -467 468 0
125 -469 0
46 -469 0
-125 -46 469 0
-468 466 0
-469 466 0
468 469 -466 0
47 126 -471 0
-47 126 471 0
47 -126 471 0
-47 -126 -471 0
471 466 -205 0
-471 466 205 0
471 -466 205 0
-471 -466 -205 0
466 -472 0
471 -472 0
-466 -471 472 0
126 -473 0
47 -473 0
-126 -47 473 0
-472 470 0
-473 470 0
472 473 -470 0
48 127 -474 0
-48 127 474 0
48 -127 474 0
-48 -127 -474 0
474 470 -206 0
-474 470 206 0
474 -470 206 0
-474 -470 -206 0
470 -475 0
474 -475 0
-470 -474 475 0
127 -476 0
48 -476 0
-127 -48 476 0
-475 461 0
-476 461 0
475 476 -461 0
463 -477 0
467 -477 0
471 -477 0
474 -477 0
-463 -467 -471 -474 477 0
476 -478 0
-476 478 0
460 -479 0
477 -479 0
-460 -477 479 0
-479 480 0
-461 480 0
479 461 -480 0
49 128 -483 0
-49 128 483 0
49 -128 483 0
-49 -128 -483 0
483 480 -207 0
-483 480 207 0
483 -480 207 0
-483 -480 -207 0
480 -484 0
483 -484 0
-480 -483 484 0
128 -485 0
49 -485 0
-128 -49 485 0
-484 482 0
-485 482 0
484 485 -482 0
50 129 -487 0
-50 129 487 0
50 -129 487 0
-50 -129 -487 0
487 482 -208 0
-487 482 208 0
487 -482 208 0
-487 -482 -208 0
482 -488 0
487 -488 0
-482 -487 488 0
129 -489 0
50 -489 0
-129 -50 489 0
-488 486 0
-489 486 0
488 489 -486 0
51 130 -491 0
-51 130 491 0
51 -130 491 0
-51 -130 -491 0
491 486 -209 0
-491 486 209 0
491 -486 209 0
-491 -486 -209 0
486 -492 0
491 -492 0
-486 -491 492 0
130 -493 0
51 -493 0
-130 -51 493 0
-492 490 0
-493 490 0
492 493 -490 0
52 131 -494 0
-52 131 494 0
52 -131 494 0
-52 -131 -494 0
494 490 -210 0
-494 490 210 0
494 -490 210 0
-494 -490 -210 0
490 -495 0
494 -495 0
-490 -494 495 0
131 -496 0
52 -496 0
-131 -52 496 0
-495 481 0
-496 481 0
495 496 -481 0
483 -497 0
487 -497 0
491 -497 0
494 -497 0
-483 -487 -491 -494 497 0
496 -498 0
-496 498 0
480 -499 0
497 -499 0
-480 -497 499 0
-499 500 0
-481 500 0
499 481 -500 0
53 132 -503 0
-53 132 503 0
53 -132 503 0
-53 -132 -503 0
503 500 -211 0
-503 500 211 0
503 -500 211 0
-503 -500 -211 0
500 -504 0
503 -504 0
-500 -503 504 0
132 -505 0
53 -505 0
-132 -53 505 0
-504 502 0
-505 502 0
504 505 -502 0
54 133 -507 0
-54 133 507 0
54 -133 507 0
-54 -133 -507 0
507 502 -212 0
-507 502 212 0
507 -502 212 0
-507 -502 -212 0
502 -508 0
507 -508 0
-502 -507 508 0
133 -509 0
54 -509 0
-133 -54 509 0
-508 506 0
-509 506 0
508 509 -506 0
55 134 -511 0
-55 134 511 0
55 -134 511 0
-55 -134 -511 0
511 506 -213 0
-511 506 213 0
511 -506 213 0
-511 -506 -213 0
506 -512 0
511 -512 0
-506 -511 512 0
134 -513 0
55 -513 0
-134 -55 513 0
-512 510 0
-513 510 0
512 513 -510 0
56 135 -514 0
-56 135 514 0
56 -135 514 0
-56 -135 -514 0
514 510 -214 0
-514 510 214 0
514 -510 214 0
-514 -510 -214 0
510 -515 0
514 -515 0
-510 -514 515 0
135 -516 0
56 -516 0
-135 -56 516 0
-515 501 0
-516 501 0
515 516 -501 0
503 -517 0
507 -517 0
511 -517 0
514 -517 0
-503 -507 -511 -514 517 0
516 -518 0
-516 518 0
500 -519 0
517 -519 0
-500 -517 519 0
-519 520 0
-501 520 0
519 501 -520 0
57 136 -523 0
-57 136 523 0
57 -136 523 0
-57 -136 -523 0
523 520 -215 0
-523 520 215 0
523 -520 215 0
-523 -520 -215 0
520 -524 0
523 -524 0
-520 -523 524 0
136 -525 0
57 -525 0
-136 -57 525 0
-524 522 0
-525 522 0
524 525 -522 0
58 137 -527 0
-58 137 527 0
58 -137 527 0
-58 -137 -527 0
527 522 -216 0
-527 522 216 0
527 -522 216 0
-527 -522 -216 0
522 -528 0
527 -528 0
-522 -527 528 0
137 -529 0
58 -529 0
-137 -58 529 0
-528 526 0
-529 526 0
528 529 -526 0
59 138 -531 0
-59 138 531 0
59 -138 531 0
-59 -138 -531 0
531 526 -217 0
-531 526 217 0
531 -526 217 0
-531 -526 -217 0
526 -532 0
531 -532 0
-526 -531 532 0
138 -533 0
59 -533 0
-138 -59 533 0
-532 530 0
-533 530 0
532 533 -530 0
60 139 -534 0
-60 139 534 0
60 -139 534 0
-60 -139 -534 0
534 530 -218 0
-534 530 218 0
534 -530 218 0
-534 -530 -218 0
530 -535 0
534 -535 0
-530 -534 535 0
139 -536 0
60 -536 0
-139 -60 536 0
-535 521 0
-536 521 0
535 536 -521 0
523 -537 0
527 -537 0
531 -537 0
534 -537 0
-523 -527 -531 -534 537 0
536 -538 0
-536 538 0
520 -539 0
537 -539 0
-520 -537 539 0
-539 540 0
-521 540 0
539 521 -540 0
61 140 -543 0
-61 140 543 0
61 -140 543 0
-61 -140 -543 0
543 540 -219 0
-543 540 219 0
543 -540 219 0
-543 -540 -219 0
540 -544 0
543 -544 0
-540 -543 544 0
140 -545 0
61 -545 0
-140 -61 545 0
-544 542 0
-545 542 0
544 545 -542 0
62 141 -547 0
-62 141 547 0
62 -141 547 0
-62 -141 -547 0
547 542 -220 0
-547 542 220 0
547 -542 220 0
-547 -542 -220 0
542 -548 0
547 -548 0
-542 -547 548 0
141 -549 0
62 -549 0
-141 -62 549 0
-548 546 0
-549 546 0
548 549 -546 0
63 142 -551 0
-63 142 551 0
63 -142 551 0
-63 -142 -551 0
551 546 -221 0
-551 546 221 0
551 -546 221 0
-551 -546 -221 0
546 -552 0
551 -552 0
-546 -551 552 0
142 -553 0
63 -553 0
-142 -63 553 0
-552 550 0
-553 550 0
552 553 -550 0
64 143 -554 0
-64 143 554 0
64 -143 554 0
-64 -143 -554 0
554 550 -222 0
-554 550 222 0
554 -550 222 0
-554 -550 -222 0
550 -555 0
554 -555 0
-550 -554 555 0
143 -556 0
64 -556 0
-143 -64 556 0
-555 541 0
-556 541 0
555 556 -541 0
543 -557 0
547 -557 0
551 -557 0
554 -557 0
-543 -547 -551 -554 557 0
556 -558 0
-556 558 0
540 -559 0
557 -559 0
-540 -557 559 0
-559 560 0
-541 560 0
559 541 -560 0
65 144 -563 0
-65 144 563 0
65 -144 563 0
-65 -144 -563 0
563 560 -223 0
-563 560 223 0
563 -560 223 0
-563 -560 -223 0
560 -564 0
563 -564 0
-560 -563 564 0
144 -565 0
65 -565 0
-144 -65 565 0
-564 562 0
-565 562 0
564 565 -562 0
66 145 -567 0
-66 145 567 0
66 -145 567 0
-66 -145 -567 0
567 562 -224 0
-567 562 224 0
567 -562 224 0
-567 -562 -224 0
562 -568 0
567 -568 0
-562 -567 568 0
145 -569 0
66 -569 0
-145 -66 569 0
-568 566 0
-569 566 0
568 569 -566 0
67 146 -571 0
-67 146 571 0
67 -146 571 0
-67 -146 -571 0
571 566 -225 0
-571 566 225 0
571 -566 225 0
-571 -566 -225 0
566 -572 0
571 -572 0
-566 -571 572 0
146 -573 0
67 -573 0
-146 -67 573 0
-572 570 0
-573 570 0
572 573 -570 0
68 147 -574 0
-68 147 574 0
68 -147 574 0
-68 -147 -574 0
574 570 -226 0
-574 570 226 0
574 -570 226 0
-574 -570 -226 0
570 -575 0
574 -575 0
-570 -574 575 0
147 -576 0
68 -576 0
-147 -68 576 0
-575 561 0
-576 561 0
575 576 -561 0
563 -577 0
567 -577 0
571 -577 0
574 -577 0
-563 -567 -571 -574 577 0
576 -578 0
-576 578 0
560 -579 0
577 -579 0
-560 -577 579 0
-579 580 0
-561 580 0
579 561 -580 0
69 148 -583 0
-69 148 583 0
69 -148 583 0
-69 -148 -583 0
583 580 -227 0
-583 580 227 0
583 -580 227 0
-583 -580 -227 0
580 -584 0
583 -584 0
-580 -583 584 0
148 -585 0
69 -585 0
-148 -69 585 0
-584 582 0
-585 582 0
584 585 -582 0
70 149 -587 0
-70 149 587 0
70 -149 587 0
-70 -149 -587 0
587 582 -228 0
-587 582 228 0
587 -582 228 0
-587 -582 -228 0
582 -588 0
587 -588 0
-582 -587 588 0
149 -589 0
70 -589 0
-149 -70 589 0
-588 586 0
-589 586 0
588 589 -586 0
71 150 -591 0
-71 150 591 0
71 -150 591 0
-71 -150 -591 0
591 586 -229 0
-591 586 229 0
591 -586 229 0
-591 -586 -229 0
586 -592 0
591 -592 0
-586 -591 592 0
150 -593 0
71 -593 0
-150 -71 593 0
-592 590 0
-593 590 0
592 593 -590 0
72 151 -594 0
-72 151 594 0
72 -151 594 0
-72 -151 -594 0
594 590 -230 0
-594 590 230 0
594 -590 230 0
-594 -590 -230 0
590 -595 0
594 -595 0
-590 -594 595 0
151 -596 0
72 -596 0
-151 -72 596 0
-595 581 0
-596 581 0
595 596 -581 0
583 -597 0
587 -597 0
591 -597 0
594 -597 0
-583 -587 -591 -594 597 0
596 -598 0
-596 598 0
580 -599 0
597 -599 0
-580 -597 599 0
-599 600 0
-581 600 0
599 581 -600 0
73 152 -603 0
-73 152 603 0
73 -152 603 0
-73 -152 -603 0
603 600 -231 0
-603 600 231 0
603 -600 231 0
-603 -600 -231 0
600 -604 0
603 -604 0
-600 -603 604 0
152 -605 0
73 -605 0
-152 -73 605 0
-604 602 0
-605 602 0
604 605 -602 0
74 153 -607 0
-74 153 607 0
74 -153 607 0
-74 -153 -607 0
607 602 -232 0
-607 602 232 0
607 -602 232 0
-607 -602 -232 0
602 -608 0
607 -608 0
-602 -607 608 0
153 -609 0
74 -609 0
-153 -74 609 0
-608 606 0
-609 606 0
608 609 -606 0
75 154 -611 0
-75 154 611 0
75 -154 611 0
-75 -154 -611 0
611 606 -233 0
-611 606 233 0
611 -606 233 0
-611 -606 -233 0
606 -612 0
611 -612 0
-606 -611 612 0
154 -613 0
75 -613 0
-154 -75 613 0
-612 610 0
-613 610 0
612 613 -610 0
76 155 -614 0
-76 155 614 0
76 -155 614 0
-76 -155 -614 0
614 610 -234 0
-614 610 234 0
614 -610 234 0
-614 -610 -234 0
610 -615 0
614 -615 0
-610 -614 615 0
155 -616 0
76 -616 0
-155 -76 616 0
-615 601 0
-616 601 0
615 616 -601 0
603 -617 0
607 -617 0
611 -617 0
614 -617 0
-603 -607 -611 -614 617 0
616 -618 0
-616 618 0
600 -619 0
617 -619 0
-600 -617 619 0
-619 620 0
-601 620 0
619 601 -620 0
77 156 -623 0
-77 156 623 0
77 -156 623 0
-77 -156 -623 0
623 620 -235 0
-623 620 235 0
623 -620 235 0
-623 -620 -235 0
620 -624 0
623 -624 0
-620 -623 624 0
156 -625 0
77 -625 0
-156 -77 625 0
-624 622 0
-625 622 0
624 625 -622 0
78 157 -627 0
-78 157 627 0
78 -157 627 0
-78 -157 -627 0
627 622 -236 0
-627 622 236 0
627 -622 236 0
-627 -622 -236 0
622 -628 0
627 -628 0
-622 -627 628 0
157 -629 0
78 -629 0
-157 -78 629 0
-628 626 0
-629 626 0
628 629 -626 0
79 158 -630 0
-79 158 630 0
79 -158 630 0
-79 -158 -630 0
630 626 -237 0
-630 626 237 0
630 -626 237 0
-630 -626 -237 0
626 -631 0
630 -631 0
-626 -630 631 0
158 -632 0
79 -632 0
-158 -79 632 0
-631 621 0
-632 621 0
631 632 -621 0
623 -633 0
627 -633 0
630 -633 0
-623 -627 -630 633 0
632 -634 0
-632 634 0
620 -635 0
633 -635 0
-620 -633 635 0
-635 636 0
-621 636 0
635 621 -636 0
636 -238 0
-636 238 0
